unknown
(model
; cardinality of BoundSet is 3
(declare-sort BoundSet 0)
; rep: @uc_BoundSet_0
; rep: @uc_BoundSet_1
; rep: @uc_BoundSet_2
(declare-sort UnboundSet 0)
(define-fun IsHispanic ((BOUND_VARIABLE_505 BoundSet)) Bool true)
(define-fun IsWearingRedPlaidShirt ((BOUND_VARIABLE_505 BoundSet)) Bool true)
(define-fun WorksOnSewing ((BOUND_VARIABLE_505 BoundSet)) Bool true)
(define-fun IsWearing ((BOUND_VARIABLE_505 BoundSet)) Bool false)
(define-fun IsSewing ((BOUND_VARIABLE_505 BoundSet)) Bool false)
)
